
(set-logic ALL) 

(declare-datatype MyList ((Nil) (Cons (head Real) (tail MyList)) )) 
(declare-fun l0 () MyList) 
(declare-fun l1 () MyList) 
(declare-fun l2 () MyList) 
(declare-fun l3 () MyList) 
(declare-fun i0 () Real) 
(declare-fun i1 () Real) 
(assert (and (= l3 Nil) (is-Nil Nil) (= l3 Nil) (is-Nil l3)) )
(assert (or (= l2 l2) (= l2 Nil) (= l2 Nil) (= l1 Nil)) )
(assert (and (= l0 Nil) (= l1 l0)) )
(assert (= l1 Nil) )
(assert (is-Nil Nil) )
(assert (not (is-Cons Nil)) )
(assert (= l3 Nil) )
(assert (or (= l3 Nil) (= l3 Nil)) )
(check-sat)
